c description: Random 3-CNF over 19 variables and 81 clauses
c generator: CNFgen (0.9.2)
c copyright: (C) 2012-2022 Massimo Lauria <massimo.lauria@uniroma1.it>
c url: https://massimolauria.net/cnfgen
c command line: cnfgen --output CNF_4.28/19_bit_81_809.cnf randkcnf 3 19 81
c
p cnf 19 81
3 8 9 0
-3 9 -10 0
-11 15 17 0
-3 -6 19 0
10 -13 -16 0
-4 5 16 0
2 7 -17 0
3 11 -16 0
-4 8 16 0
-6 13 18 0
6 -12 -13 0
-3 4 -17 0
1 -10 14 0
-3 -5 -11 0
-3 -13 -17 0
-9 13 17 0
1 5 18 0
-10 11 -14 0
4 10 -17 0
1 9 13 0
2 9 14 0
-8 -11 15 0
-7 10 -15 0
-7 -15 -17 0
-4 15 -17 0
6 -10 14 0
-1 -8 -18 0
-10 -12 -13 0
1 10 13 0
2 17 -19 0
6 7 11 0
2 -11 -19 0
5 12 18 0
2 -3 9 0
-1 7 17 0
3 -7 -9 0
-6 8 10 0
3 -14 -15 0
-1 -3 19 0
-1 11 17 0
-1 -6 7 0
-4 -13 -18 0
-5 -9 14 0
3 16 -19 0
-12 -15 19 0
10 -12 14 0
-2 -6 18 0
11 18 -19 0
6 7 -17 0
-3 -4 -13 0
3 10 11 0
-1 -6 -11 0
-7 13 14 0
3 -4 -5 0
7 -10 -13 0
-2 6 -17 0
-9 -13 17 0
4 -15 -16 0
-10 16 -19 0
1 13 19 0
3 -6 19 0
-14 15 17 0
2 9 11 0
-1 -8 -19 0
-3 5 -12 0
1 2 -15 0
-8 -11 14 0
-1 -6 11 0
3 -8 -9 0
-1 -13 19 0
6 -7 -12 0
3 11 17 0
10 -11 -17 0
1 -3 8 0
-2 12 -16 0
-1 -6 -17 0
2 -11 17 0
5 10 12 0
1 -5 18 0
2 15 19 0
6 11 -15 0
